Geographic Exponential Decay
20 78 235 11 280 48 5 141 180 121 313 249 43 310 27 305 66 229 216 203 125
p edge 320 1256
e 0 69 1.0
e 0 22 1.0
e 1 179 7.0
e 1 75 4.0
e 1 172 1.0
e 1 174 9.0
e 1 6 1.0
e 2 279 1.0
e 2 111 3.0
e 3 255 2.0
e 3 158 2.0
e 3 19 2.0
e 4 19 3.0
e 4 238 34.0
e 4 27 19.0
e 4 18 27.0
e 4 148 9.0
e 4 111 41.0
e 4 89 2.0
e 4 309 2.0
e 4 79 36.0
e 4 109 37.0
e 4 137 3.0
e 4 307 42.0
e 4 76 37.0
e 4 107 20.0
e 4 255 17.0
e 4 169 43.0
e 4 310 44.0
e 4 21 7.0
e 4 3 15.0
e 5 48 60.0
e 5 279 74.0
e 5 182 26.0
e 5 249 76.0
e 5 50 96.0
e 5 180 1.0
e 5 297 44.0
e 5 120 47.0
e 5 280 18.0
e 5 290 29.0
e 5 82 15.0
e 5 276 77.0
e 5 115 30.0
e 5 214 15.0
e 5 156 18.0
e 5 139 44.0
e 5 230 84.0
e 5 121 35.0
e 5 63 99.0
e 5 176 74.0
e 5 56 80.0
e 5 72 62.0
e 5 100 97.0
e 5 133 51.0
e 5 18 9.0
e 5 118 54.0
e 5 76 8.0
e 5 244 76.0
e 5 154 85.0
e 5 19 96.0
e 5 274 5.0
e 5 122 26.0
e 5 131 65.0
e 5 293 44.0
e 5 20 64.0
e 5 217 83.0
e 5 109 56.0
e 6 243 3.0
e 6 239 1.0
e 7 193 2.0
e 7 43 76.0
e 7 181 1.0
e 8 91 7.0
e 8 270 9.0
e 9 20 6.0
e 9 66 97.0
e 9 142 1.0
e 10 11 77.0
e 10 115 1.0
e 11 116 61.0
e 11 119 25.0
e 11 113 16.0
e 11 49 32.0
e 11 250 29.0
e 11 228 22.0
e 11 243 89.0
e 11 56 60.0
e 11 108 87.0
e 11 300 49.0
e 11 231 24.0
e 11 106 71.0
e 11 199 33.0
e 11 269 72.0
e 11 270 22.0
e 11 200 87.0
e 11 241 7.0
e 11 13 23.0
e 11 152 15.0
e 11 9 87.0
e 11 186 55.0
e 11 204 67.0
e 11 303 98.0
e 11 183 19.0
e 11 40 82.0
e 11 297 53.0
e 11 304 71.0
e 11 184 18.0
e 11 80 68.0
e 11 62 53.0
e 11 248 96.0
e 11 305 47.0
e 11 65 39.0
e 11 187 65.0
e 11 82 84.0
e 11 41 97.0
e 12 267 7.0
e 12 215 9.0
e 12 92 8.0
e 12 206 12.0
e 12 129 10.0
e 13 104 20.0
e 14 176 2.0
e 14 56 21.0
e 15 108 6.0
e 15 249 22.0
e 15 228 4.0
e 16 247 9.0
e 16 273 1.0
e 16 45 5.0
e 16 241 10.0
e 16 88 10.0
e 17 144 6.0
e 17 300 5.0
e 17 114 1.0
e 21 215 1.0
e 22 256 10.0
e 22 69 1.0
e 22 245 11.0
e 22 231 5.0
e 23 159 5.0
e 23 59 10.0
e 23 104 2.0
e 23 125 47.0
e 23 16 4.0
e 23 304 10.0
e 23 235 20.0
e 23 242 5.0
e 23 289 18.0
e 23 89 6.0
e 24 217 18.0
e 24 34 6.0
e 24 253 37.0
e 24 98 7.0
e 24 192 14.0
e 24 57 18.0
e 24 276 26.0
e 24 292 47.0
e 24 16 6.0
e 24 133 42.0
e 24 304 6.0
e 24 218 40.0
e 24 232 19.0
e 24 159 30.0
e 24 271 34.0
e 24 75 6.0
e 24 151 48.0
e 24 142 37.0
e 24 106 18.0
e 25 2 2.0
e 25 197 2.0
e 26 316 4.0
e 26 277 5.0
e 26 282 1.0
e 27 66 66.0
e 27 166 97.0
e 27 189 52.0
e 27 232 55.0
e 27 12 49.0
e 27 181 62.0
e 27 298 69.0
e 27 117 12.0
e 27 118 27.0
e 27 119 59.0
e 27 277 27.0
e 27 199 57.0
e 27 72 92.0
e 27 311 33.0
e 27 21 17.0
e 27 49 19.0
e 27 198 43.0
e 27 235 32.0
e 27 222 61.0
e 27 145 19.0
e 27 270 49.0
e 27 114 65.0
e 27 216 60.0
e 27 236 9.0
e 27 96 48.0
e 27 261 30.0
e 27 89 2.0
e 27 204 76.0
e 27 212 86.0
e 27 10 44.0
e 27 103 39.0
e 27 225 29.0
e 27 60 75.0
e 27 1 11.0
e 27 74 21.0
e 27 115 41.0
e 28 204 2.0
e 28 188 1.0
e 29 202 4.0
e 29 18 4.0
e 29 66 63.0
e 30 221 17.0
e 30 314 11.0
e 30 96 8.0
e 30 219 14.0
e 30 97 24.0
e 30 88 8.0
e 30 107 1.0
e 30 37 24.0
e 30 58 6.0
e 30 136 5.0
e 31 42 1.0
e 31 181 3.0
e 32 168 5.0
e 32 16 4.0
e 32 81 3.0
e 33 284 4.0
e 33 138 1.0
e 34 88 2.0
e 35 279 2.0
e 35 240 6.0
e 36 18 1.0
e 36 306 3.0
e 37 261 2.0
e 37 104 19.0
e 38 48 14.0
e 38 109 3.0
e 39 186 3.0
e 39 262 2.0
e 40 167 1.0
e 41 58 1.0
e 42 66 7.0
e 42 170 4.0
e 43 103 63.0
e 43 195 65.0
e 43 11 22.0
e 43 83 75.0
e 43 15 29.0
e 43 302 10.0
e 43 92 9.0
e 43 285 47.0
e 43 236 84.0
e 43 13 61.0
e 43 63 34.0
e 43 163 96.0
e 43 143 99.0
e 43 104 73.0
e 43 220 73.0
e 43 4 49.0
e 43 289 21.0
e 43 148 13.0
e 43 196 10.0
e 43 207 1.0
e 43 158 13.0
e 43 132 4.0
e 43 48 54.0
e 43 294 35.0
e 43 176 76.0
e 43 153 50.0
e 43 44 22.0
e 43 170 28.0
e 43 253 81.0
e 43 242 53.0
e 43 68 87.0
e 43 209 53.0
e 43 53 10.0
e 43 179 74.0
e 43 180 71.0
e 43 264 40.0
e 44 68 5.0
e 44 101 7.0
e 44 203 66.0
e 44 63 10.0
e 45 296 1.0
e 46 121 13.0
e 46 169 2.0
e 46 263 1.0
e 47 113 1.0
e 47 305 21.0
e 48 57 14.0
e 48 262 11.0
e 48 40 65.0
e 48 199 92.0
e 48 86 33.0
e 48 313 60.0
e 48 65 97.0
e 48 73 78.0
e 48 284 35.0
e 48 264 4.0
e 48 107 92.0
e 48 18 78.0
e 48 156 77.0
e 48 106 56.0
e 48 125 74.0
e 48 132 49.0
e 48 27 97.0
e 48 30 16.0
e 48 306 76.0
e 48 124 59.0
e 48 298 15.0
e 48 296 40.0
e 48 285 64.0
e 48 74 77.0
e 48 17 30.0
e 48 20 64.0
e 48 82 21.0
e 48 305 100.0
e 48 152 39.0
e 48 59 17.0
e 48 297 45.0
e 48 67 14.0
e 48 8 62.0
e 48 184 34.0
e 49 120 6.0
e 50 118 3.0
e 50 179 1.0
e 51 311 6.0
e 51 289 2.0
e 52 287 2.0
e 52 269 1.0
e 53 216 49.0
e 53 290 1.0
e 53 99 6.0
e 53 189 1.0
e 54 306 5.0
e 54 6 6.0
e 55 56 3.0
e 55 168 1.0
e 56 86 17.0
e 56 205 12.0
e 56 99 21.0
e 56 157 17.0
e 56 92 12.0
e 56 291 1.0
e 60 79 3.0
e 60 189 1.0
e 61 90 2.0
e 61 166 2.0
e 62 85 1.0
e 62 307 1.0
e 64 220 5.0
e 64 51 3.0
e 64 221 19.0
e 64 85 3.0
e 64 197 25.0
e 64 44 25.0
e 64 37 10.0
e 64 87 15.0
e 64 59 24.0
e 64 180 52.0
e 66 267 25.0
e 66 219 43.0
e 66 138 91.0
e 66 306 17.0
e 66 4 10.0
e 66 293 1.0
e 66 212 70.0
e 66 108 53.0
e 66 242 64.0
e 66 209 13.0
e 66 181 91.0
e 66 80 12.0
e 66 179 22.0
e 66 128 92.0
e 66 182 98.0
e 66 260 23.0
e 66 59 4.0
e 66 69 69.0
e 66 14 53.0
e 66 279 26.0
e 66 134 34.0
e 66 228 4.0
e 66 148 24.0
e 66 91 56.0
e 66 43 92.0
e 66 24 77.0
e 66 141 20.0
e 66 239 54.0
e 66 247 45.0
e 66 53 40.0
e 66 118 42.0
e 66 308 23.0
e 66 111 42.0
e 67 211 1.0
e 70 278 14.0
e 70 106 2.0
e 70 276 6.0
e 71 177 3.0
e 71 60 1.0
e 73 258 7.0
e 73 59 1.0
e 74 16 8.0
e 74 270 19.0
e 74 80 1.0
e 74 307 18.0
e 74 264 22.0
e 74 41 1.0
e 74 233 6.0
e 74 127 19.0
e 76 78 96.0
e 76 6 1.0
e 76 116 7.0
e 77 111 1.0
e 77 171 1.0
e 78 26 19.0
e 78 174 2.0
e 78 291 54.0
e 78 261 72.0
e 78 218 39.0
e 78 14 17.0
e 78 171 25.0
e 78 258 100.0
e 78 213 100.0
e 78 179 21.0
e 78 175 100.0
e 78 170 66.0
e 78 238 94.0
e 78 253 28.0
e 78 94 2.0
e 78 66 22.0
e 78 138 3.0
e 78 216 7.0
e 78 16 27.0
e 78 15 97.0
e 78 123 52.0
e 78 152 40.0
e 78 99 88.0
e 78 242 81.0
e 78 250 42.0
e 78 126 94.0
e 78 237 46.0
e 78 257 5.0
e 78 232 68.0
e 78 202 58.0
e 78 220 97.0
e 78 222 83.0
e 78 8 80.0
e 78 203 62.0
e 78 172 64.0
e 78 281 37.0
e 81 170 4.0
e 81 67 2.0
e 83 16 11.0
e 83 180 2.0
e 84 195 1.0
e 84 172 1.0
e 87 311 10.0
e 90 212 3.0
e 90 265 6.0
e 91 99 24.0
e 91 63 12.0
e 91 1 18.0
e 91 60 18.0
e 91 71 4.0
e 91 317 9.0
e 91 137 3.0
e 91 170 13.0
e 93 54 19.0
e 93 282 5.0
e 93 243 23.0
e 93 274 17.0
e 93 212 19.0
e 93 308 22.0
e 93 262 14.0
e 93 129 6.0
e 93 121 74.0
e 93 66 87.0
e 94 4 32.0
e 95 7 1.0
e 95 228 5.0
e 95 277 3.0
e 97 268 4.0
e 97 121 55.0
e 98 194 11.0
e 98 114 12.0
e 98 262 4.0
e 98 151 9.0
e 100 145 1.0
e 101 24 4.0
e 102 115 2.0
e 102 113 5.0
e 102 306 3.0
e 104 271 2.0
e 104 152 23.0
e 104 57 19.0
e 104 39 8.0
e 104 158 2.0
e 104 118 24.0
e 105 62 1.0
e 105 181 1.0
e 108 55 4.0
e 108 218 10.0
e 110 279 5.0
e 110 151 11.0
e 110 252 12.0
e 110 204 9.0
e 110 145 2.0
e 112 311 14.0
e 112 192 17.0
e 112 145 22.0
e 112 228 11.0
e 112 244 24.0
e 112 0 7.0
e 112 137 13.0
e 112 187 7.0
e 112 37 16.0
e 112 179 23.0
e 116 241 3.0
e 117 114 10.0
e 117 152 5.0
e 117 45 6.0
e 117 93 21.0
e 121 314 6.0
e 121 87 82.0
e 121 127 67.0
e 121 3 87.0
e 121 263 96.0
e 121 138 3.0
e 121 62 1.0
e 121 232 70.0
e 121 91 92.0
e 121 311 95.0
e 121 122 15.0
e 121 116 24.0
e 121 98 23.0
e 121 10 18.0
e 121 234 19.0
e 121 84 54.0
e 121 233 71.0
e 121 172 48.0
e 121 44 75.0
e 121 113 32.0
e 121 173 63.0
e 121 47 56.0
e 121 146 14.0
e 121 264 63.0
e 121 265 47.0
e 121 276 27.0
e 121 288 60.0
e 121 306 70.0
e 121 16 69.0
e 121 254 64.0
e 121 230 50.0
e 121 286 43.0
e 121 160 1.0
e 123 86 1.0
e 123 43 3.0
e 124 165 1.0
e 125 222 90.0
e 125 212 74.0
e 125 180 76.0
e 125 190 32.0
e 125 238 52.0
e 125 13 85.0
e 125 249 37.0
e 125 175 66.0
e 125 164 32.0
e 125 237 78.0
e 125 106 8.0
e 125 49 17.0
e 125 137 59.0
e 125 275 40.0
e 125 232 40.0
e 125 265 65.0
e 125 309 84.0
e 125 161 48.0
e 125 32 46.0
e 125 30 48.0
e 125 150 31.0
e 125 230 47.0
e 125 198 41.0
e 125 85 41.0
e 125 74 29.0
e 125 7 26.0
e 125 42 83.0
e 125 51 99.0
e 125 223 83.0
e 125 292 43.0
e 125 131 95.0
e 125 62 15.0
e 125 95 39.0
e 125 269 2.0
e 125 135 73.0
e 126 287 2.0
e 128 268 1.0
e 129 159 11.0
e 129 181 5.0
e 129 71 8.0
e 130 44 10.0
e 130 226 4.0
e 130 14 1.0
e 131 106 7.0
e 131 249 92.0
e 131 6 11.0
e 134 253 4.0
e 134 170 24.0
e 134 177 21.0
e 134 289 16.0
e 134 26 16.0
e 134 176 25.0
e 134 100 4.0
e 134 64 15.0
e 134 150 12.0
e 135 59 2.0
e 136 251 12.0
e 139 136 2.0
e 139 71 8.0
e 139 126 10.0
e 139 110 5.0
e 140 172 2.0
e 140 101 2.0
e 141 287 47.0
e 141 189 97.0
e 141 314 51.0
e 141 44 16.0
e 141 292 64.0
e 141 0 72.0
e 141 264 20.0
e 141 60 75.0
e 141 231 40.0
e 141 113 48.0
e 141 89 70.0
e 141 194 40.0
e 141 136 96.0
e 141 229 75.0
e 141 80 21.0
e 141 279 54.0
e 141 278 31.0
e 141 137 2.0
e 141 304 58.0
e 141 234 37.0
e 141 224 36.0
e 141 207 6.0
e 141 58 39.0
e 141 240 94.0
e 141 133 21.0
e 141 265 43.0
e 141 146 18.0
e 141 37 73.0
e 141 26 43.0
e 141 315 36.0
e 141 247 91.0
e 141 3 84.0
e 141 163 30.0
e 141 159 95.0
e 141 270 98.0
e 141 103 25.0
e 143 150 23.0
e 143 100 7.0
e 143 101 7.0
e 143 52 1.0
e 144 217 3.0
e 146 68 20.0
e 146 179 23.0
e 146 12 3.0
e 146 197 11.0
e 146 311 2.0
e 146 67 23.0
e 146 36 11.0
e 146 84 6.0
e 147 288 3.0
e 147 267 7.0
e 147 284 12.0
e 147 19 5.0
e 147 94 1.0
e 149 89 1.0
e 149 1 10.0
e 150 10 7.0
e 150 36 3.0
e 150 42 21.0
e 150 290 16.0
e 150 314 16.0
e 150 50 1.0
e 150 130 11.0
e 153 138 16.0
e 153 4 42.0
e 153 144 26.0
e 153 262 39.0
e 153 79 25.0
e 153 27 72.0
e 153 168 2.0
e 153 234 23.0
e 153 40 4.0
e 153 20 5.0
e 153 282 17.0
e 153 87 2.0
e 153 247 12.0
e 153 277 27.0
e 153 161 29.0
e 153 23 6.0
e 153 236 22.0
e 153 60 23.0
e 154 157 21.0
e 155 210 2.0
e 155 257 2.0
e 156 268 1.0
e 156 4 41.0
e 156 38 1.0
e 157 262 13.0
e 157 39 23.0
e 157 190 1.0
e 157 116 7.0
e 157 126 7.0
e 157 16 20.0
e 157 150 15.0
e 157 17 25.0
e 160 129 3.0
e 160 166 11.0
e 160 93 18.0
e 160 135 7.0
e 160 21 23.0
e 160 258 13.0
e 160 18 19.0
e 160 249 27.0
e 160 282 8.0
e 161 98 11.0
e 162 189 3.0
e 162 278 3.0
e 164 250 1.0
e 164 257 2.0
e 165 10 1.0
e 166 230 8.0
e 166 257 1.0
e 167 88 1.0
e 173 237 1.0
e 174 222 8.0
e 174 159 7.0
e 174 192 4.0
e 175 291 9.0
e 175 75 10.0
e 175 227 11.0
e 177 221 1.0
e 178 76 7.0
e 178 156 10.0
e 180 223 68.0
e 180 74 9.0
e 180 235 46.0
e 180 252 75.0
e 180 27 68.0
e 180 3 2.0
e 180 181 15.0
e 180 287 86.0
e 180 234 82.0
e 180 314 81.0
e 180 44 77.0
e 180 32 11.0
e 180 266 29.0
e 180 114 73.0
e 180 168 84.0
e 180 128 41.0
e 180 50 5.0
e 180 134 19.0
e 180 282 55.0
e 180 261 56.0
e 180 73 22.0
e 180 66 66.0
e 180 147 88.0
e 180 2 40.0
e 180 122 86.0
e 180 17 88.0
e 180 61 68.0
e 180 259 42.0
e 180 135 49.0
e 180 224 70.0
e 180 18 20.0
e 180 133 27.0
e 183 190 12.0
e 184 137 2.0
e 185 96 3.0
e 185 309 3.0
e 186 135 1.0
e 188 111 3.0
e 190 133 6.0
e 190 244 13.0
e 191 254 6.0
e 191 111 1.0
e 193 224 1.0
e 193 17 4.0
e 196 114 2.0
e 196 98 1.0
e 199 236 2.0
e 199 191 3.0
e 200 212 1.0
e 201 279 1.0
e 201 199 2.0
e 202 179 5.0
e 203 32 61.0
e 203 292 50.0
e 203 249 20.0
e 203 171 29.0
e 203 99 47.0
e 203 150 87.0
e 203 65 62.0
e 203 262 47.0
e 203 81 47.0
e 203 131 66.0
e 203 23 69.0
e 203 95 89.0
e 203 30 15.0
e 203 104 2.0
e 203 245 59.0
e 203 293 74.0
e 203 134 7.0
e 203 217 15.0
e 203 300 83.0
e 203 259 20.0
e 203 46 89.0
e 203 35 60.0
e 203 123 50.0
e 203 27 25.0
e 203 158 76.0
e 203 226 55.0
e 203 214 53.0
e 203 127 11.0
e 203 36 92.0
e 203 227 48.0
e 203 98 64.0
e 203 228 6.0
e 203 94 21.0
e 203 115 93.0
e 203 291 51.0
e 204 87 9.0
e 205 278 17.0
e 206 98 12.0
e 206 65 5.0
e 208 292 13.0
e 208 281 7.0
e 208 156 24.0
e 208 157 22.0
e 208 47 1.0
e 208 14 6.0
e 208 21 18.0
e 208 296 4.0
e 208 51 16.0
e 208 87 13.0
e 210 259 13.0
e 211 273 1.0
e 213 118 1.0
e 214 104 4.0
e 214 212 5.0
e 214 67 9.0
e 215 290 4.0
e 216 228 86.0
e 216 157 21.0
e 216 6 95.0
e 216 309 19.0
e 216 10 54.0
e 216 58 70.0
e 216 176 38.0
e 216 198 30.0
e 216 117 39.0
e 216 182 41.0
e 216 248 74.0
e 216 203 56.0
e 216 262 1.0
e 216 26 26.0
e 216 250 52.0
e 216 31 20.0
e 216 267 22.0
e 216 245 100.0
e 216 147 98.0
e 216 205 27.0
e 216 111 67.0
e 216 254 17.0
e 216 236 55.0
e 216 191 87.0
e 216 118 79.0
e 216 285 35.0
e 216 55 12.0
e 216 126 37.0
e 216 64 73.0
e 216 310 12.0
e 216 32 32.0
e 216 54 58.0
e 216 283 63.0
e 216 40 90.0
e 222 79 4.0
e 223 288 3.0
e 225 42 6.0
e 225 236 1.0
e 227 174 1.0
e 227 49 1.0
e 227 21 11.0
e 229 61 34.0
e 229 209 21.0
e 229 49 51.0
e 229 19 34.0
e 229 21 47.0
e 229 90 53.0
e 229 254 15.0
e 229 148 62.0
e 229 38 37.0
e 229 2 39.0
e 229 187 35.0
e 229 43 98.0
e 229 6 30.0
e 229 164 73.0
e 229 159 78.0
e 229 64 48.0
e 229 265 54.0
e 229 86 100.0
e 229 144 26.0
e 229 130 70.0
e 229 169 46.0
e 229 135 3.0
e 229 202 99.0
e 229 220 1.0
e 229 269 79.0
e 229 132 88.0
e 229 73 36.0
e 229 243 50.0
e 229 54 86.0
e 229 280 31.0
e 229 224 77.0
e 229 238 88.0
e 229 133 74.0
e 229 106 75.0
e 229 237 55.0
e 229 134 80.0
e 233 105 14.0
e 233 274 3.0
e 233 14 13.0
e 233 291 13.0
e 233 80 12.0
e 233 202 19.0
e 233 261 19.0
e 233 300 6.0
e 235 277 1.0
e 235 153 8.0
e 235 28 92.0
e 235 24 65.0
e 235 307 79.0
e 235 306 21.0
e 235 157 91.0
e 235 287 71.0
e 235 237 49.0
e 235 10 68.0
e 235 186 94.0
e 235 304 32.0
e 235 222 22.0
e 235 302 60.0
e 235 286 70.0
e 235 56 22.0
e 235 299 18.0
e 235 305 28.0
e 235 115 16.0
e 235 63 85.0
e 235 3 35.0
e 235 99 30.0
e 235 308 16.0
e 235 228 27.0
e 235 178 7.0
e 235 206 38.0
e 235 32 55.0
e 235 173 58.0
e 235 7 2.0
e 235 124 64.0
e 235 160 33.0
e 235 275 31.0
e 235 158 74.0
e 235 181 73.0
e 240 308 8.0
e 240 142 13.0
e 240 143 19.0
e 240 290 23.0
e 240 86 17.0
e 240 89 17.0
e 240 273 3.0
e 240 297 1.0
e 244 3 11.0
e 244 109 14.0
e 244 6 12.0
e 244 264 16.0
e 244 245 15.0
e 244 127 21.0
e 244 297 9.0
e 245 304 5.0
e 246 163 1.0
e 246 296 6.0
e 246 17 4.0
e 247 61 9.0
e 248 265 6.0
e 249 266 57.0
e 249 58 20.0
e 249 37 86.0
e 249 141 18.0
e 249 246 14.0
e 249 3 68.0
e 249 288 94.0
e 249 63 96.0
e 249 303 2.0
e 249 223 71.0
e 249 177 3.0
e 249 270 51.0
e 249 212 76.0
e 249 89 16.0
e 249 154 22.0
e 249 159 76.0
e 249 156 29.0
e 249 64 3.0
e 249 61 39.0
e 249 0 12.0
e 249 215 67.0
e 249 17 37.0
e 249 308 99.0
e 249 124 60.0
e 249 305 37.0
e 249 204 11.0
e 249 95 74.0
e 249 202 86.0
e 249 168 72.0
e 249 157 94.0
e 249 240 37.0
e 251 219 8.0
e 251 269 9.0
e 251 216 81.0
e 251 288 6.0
e 252 191 11.0
e 252 205 3.0
e 252 164 4.0
e 254 307 1.0
e 254 183 14.0
e 254 7 7.0
e 254 122 21.0
e 254 258 9.0
e 254 221 7.0
e 255 22 9.0
e 256 9 2.0
e 258 156 3.0
e 259 2 19.0
e 259 21 12.0
e 259 166 8.0
e 259 147 4.0
e 259 208 14.0
e 259 315 12.0
e 259 117 8.0
e 260 3 2.0
e 263 216 53.0
e 266 168 2.0
e 266 137 3.0
e 266 119 2.0
e 270 158 14.0
e 270 181 12.0
e 270 15 12.0
e 270 172 8.0
e 271 56 9.0
e 272 250 2.0
e 272 51 2.0
e 275 276 10.0
e 275 102 7.0
e 275 29 8.0
e 278 80 1.0
e 278 97 13.0
e 278 111 6.0
e 278 105 5.0
e 278 279 21.0
e 278 101 4.0
e 280 188 17.0
e 280 263 20.0
e 280 52 41.0
e 280 29 21.0
e 280 80 64.0
e 280 110 96.0
e 280 257 78.0
e 280 119 68.0
e 280 43 79.0
e 280 38 65.0
e 280 13 2.0
e 280 10 42.0
e 280 96 69.0
e 280 35 33.0
e 280 89 35.0
e 280 45 13.0
e 280 171 19.0
e 280 67 56.0
e 280 179 61.0
e 280 267 56.0
e 280 113 62.0
e 280 143 50.0
e 280 144 27.0
e 280 83 64.0
e 280 189 9.0
e 280 134 50.0
e 280 250 66.0
e 280 109 61.0
e 280 145 64.0
e 280 303 29.0
e 280 235 87.0
e 280 218 97.0
e 280 92 28.0
e 280 124 87.0
e 280 146 36.0
e 281 199 8.0
e 281 77 9.0
e 281 169 3.0
e 283 68 2.0
e 283 75 4.0
e 294 186 23.0
e 294 144 14.0
e 294 99 12.0
e 294 102 1.0
e 294 218 21.0
e 294 141 34.0
e 294 291 13.0
e 294 61 2.0
e 294 4 40.0
e 295 203 99.0
e 295 134 6.0
e 298 47 4.0
e 299 196 2.0
e 301 79 6.0
e 301 254 6.0
e 301 37 11.0
e 301 315 4.0
e 301 215 11.0
e 303 286 11.0
e 303 144 13.0
e 303 131 2.0
e 303 248 22.0
e 303 266 11.0
e 303 44 7.0
e 303 278 20.0
e 305 239 29.0
e 305 311 58.0
e 305 59 2.0
e 305 33 90.0
e 305 49 15.0
e 305 167 64.0
e 305 198 40.0
e 305 182 9.0
e 305 255 90.0
e 305 220 43.0
e 305 108 77.0
e 305 221 52.0
e 305 308 87.0
e 305 243 55.0
e 305 164 32.0
e 305 99 69.0
e 305 181 27.0
e 305 29 36.0
e 305 118 70.0
e 305 300 85.0
e 305 199 2.0
e 305 130 61.0
e 305 31 46.0
e 305 72 33.0
e 305 82 29.0
e 305 158 6.0
e 305 139 34.0
e 305 18 33.0
e 305 159 66.0
e 305 256 86.0
e 305 21 61.0
e 305 234 64.0
e 310 314 60.0
e 310 267 8.0
e 310 63 11.0
e 310 118 45.0
e 310 308 61.0
e 310 123 93.0
e 310 285 60.0
e 310 318 15.0
e 310 158 88.0
e 310 164 13.0
e 310 53 44.0
e 310 194 89.0
e 310 218 27.0
e 310 302 89.0
e 310 212 50.0
e 310 114 53.0
e 310 93 77.0
e 310 112 8.0
e 310 262 1.0
e 310 247 23.0
e 310 97 71.0
e 310 91 46.0
e 310 286 96.0
e 310 215 49.0
e 310 264 40.0
e 310 126 6.0
e 310 317 34.0
e 310 110 10.0
e 310 277 35.0
e 310 270 90.0
e 310 94 99.0
e 310 99 42.0
e 310 287 20.0
e 310 162 2.0
e 310 13 44.0
e 312 311 4.0
e 312 198 2.0
e 313 234 12.0
e 313 89 55.0
e 313 286 58.0
e 313 78 44.0
e 313 111 30.0
e 313 27 24.0
e 313 261 64.0
e 313 182 45.0
e 313 143 6.0
e 313 169 11.0
e 313 68 8.0
e 313 22 29.0
e 313 100 15.0
e 313 101 38.0
e 313 161 81.0
e 313 145 54.0
e 313 176 54.0
e 313 126 22.0
e 313 30 2.0
e 313 13 58.0
e 313 302 12.0
e 313 102 44.0
e 313 171 32.0
e 313 204 72.0
e 313 88 88.0
e 313 282 28.0
e 313 276 77.0
e 313 308 43.0
e 313 173 22.0
e 313 208 68.0
e 313 287 99.0
e 313 241 5.0
e 313 86 59.0
e 313 307 53.0
e 313 113 65.0
e 313 170 46.0
e 316 131 17.0
e 316 202 5.0
e 316 132 15.0
e 316 171 3.0
e 316 317 12.0
e 316 106 4.0
e 316 125 40.0
e 316 20 24.0
e 316 266 11.0
e 318 19 1.0
e 318 274 6.0
e 318 285 8.0
e 318 238 1.0
e 319 253 1.0
e 319 116 4.0
